1 7 50 1 
200 160
 0 30 40  0   0 0 0
 1 37 52 10   7 1 1 1
 2 49 49 10  30 1 1 1
 3 52 64 10  16 1 1 1
 4 20 26 10   9 1 1 1
 5 40 30 10  21 1 1 1
 6 21 47 10  15 1 1 1
 7 17 63 10  19 1 1 1
 8 31 62 10  23 1 1 1
 9 52 33 10  11 1 1 1
10 51 21 10   5 1 1 1
11 42 41 10  19 1 1 1
12 31 32 10  29 1 1 1
13  5 25 10  23 1 1 1
14 12 42 10  21 1 1 1
15 36 16 10  10 1 1 1
16 52 41 10  15 1 1 1
17 27 23 10   3 1 1 1
18 17 33 10  41 1 1 1
19 13 13 10   9 1 1 1
20 57 58 10  28 1 1 1
21 62 42 10   8 1 1 1
22 42 57 10   8 1 1 1
23 16 57 10  16 1 1 1
24  8 52 10  10 1 1 1
25  7 38 10  28 1 1 1
26 27 68 10   7 1 1 1
27 30 48 10  15 1 1 1
28 43 67 10  14 1 1 1
29 58 48 10   6 1 1 1
30 58 27 10  19 1 1 1
31 37 69 10  11 1 1 1
32 38 46 10  12 1 1 1
33 46 10 10  23 1 1 1
34 61 33 10  26 1 1 1
35 62 63 10  17 1 1 1
36 63 69 10   6 1 1 1
37 32 22 10   9 1 1 1
38 45 35 10  15 1 1 1
39 59 15 10  14 1 1 1
40  5  6 10   7 1 1 1
41 10 17 10  27 1 1 1
42 21 10 10  13 1 1 1
43  5 64 10  11 1 1 1
44 30 15 10  16 1 1 1
45 39 10 10  10 1 1 1
46 32 39 10   5 1 1 1
47 25 32 10  25 1 1 1
48 25 55 10  17 1 1 1
49 48 28 10  18 1 1 1
50 56 37 10  10 1 1 1




